1219.85 0
0 1 2 3 4 94 93 85 84 76 75 74 73 72 64 65 66 67 58 57 56 55 54 63 53 52 51 50 59 60 61 62 71 70 69 68 77 86 78 79 80 81 82 83 92 91 90 89 88 97 87 96 95 5 7 6 14 15 16 17 18 27 26 35 34 25 24 23 32 33 41 42 43 44 45 36 37 46 47 48 49 40 39 38 29 28 19 20 21 30 31 22 13 12 11 10 9 8 98